c Random generated cnf formula, satisfiable: true
p cnf 10 50
-9 -4 3 0
4 1 -2 0
-7 2 10 0
1 8 -5 0
10 4 3 0
1 2 -4 0
8 6 4 0
10 -1 -9 0
-6 -5 1 0
4 -8 -5 0
-2 -3 1 0
10 6 -7 0
4 3 6 0
-3 -4 -7 0
5 -2 9 0
-7 3 9 0
10 5 -4 0
5 -8 -1 0
-5 -2 -6 0
4 6 9 0
3 8 2 0
1 7 2 0
9 -2 3 0
3 -8 10 0
-4 -9 -6 0
1 -5 -4 0
5 3 7 0
-3 -1 4 0
2 -8 10 0
4 9 -1 0
2 -5 4 0
-3 -4 -10 0
-5 -3 -8 0
7 1 9 0
-6 10 3 0
-8 6 5 0
3 -6 9 0
3 4 -1 0
-3 5 -6 0
-7 -2 -9 0
-2 10 1 0
8 9 2 0
1 9 -4 0
7 8 -4 0
1 -4 -9 0
1 4 -2 0
-2 4 8 0
-3 -8 -9 0
-2 6 1 0
3 -4 -1 0
